1 3	2 0	3 2	4 1	5 0	6 0	7 0	8 0	9 0	10  4
1 5	2 1	3 0	4 2	5 3	6 0	7 0	8 4	9 0	10  0
1 0	2 0	3 1	4 0	5 2	6 3	7 0	8 0	9 4	10  0
1 3	2 0	3 1	4 0	5 0	6 0	7 2	8 0	9 0	10  0
1 0	2 1	3 0	4 2	5 4	6 0	7 0	8 3	9 0	10  0
1 0	2 5	3 1	4 0	5 2	6 3	7 0	8 0	9 4	10  0
1 0	2 4	3 0	4 1	5 0	6 0	7 2	8 0	9 0	10  3
1 1	2 0	3 2	4 0	5 0	6 0	7 0	8 0	9 0	10  3
1 0	2 4	3 0	4 2	5 3	6 0	7 0	8 1	9 0	10  0
1 0	2 0	3 1	4 0	5 0	6 4	7 3	8 0	9 0	10  2
